Zr4 In4 Cu4 S16
1.0
   7.3513679999999999    0.0000000000000000    0.0000000000000005
  -0.0000000000000005    7.4763659999999996    0.0000000000000005
   0.0000000000000000    0.0000000000000000   10.7423800000000007
Zr In Cu S
4 4 4 16
direct
   0.7500000000000000    0.7500000000000000    0.7500000000000000 Zr4+
   0.2500000000000000    0.7500000000000000    0.7500000000000000 Zr4+
   0.2500000000000000    0.2500000000000000    0.2500000000000000 Zr4+
   0.7500000000000000    0.2500000000000000    0.2500000000000000 Zr4+
   0.5000000000000000    0.0000000000000000    0.0000000000000000 In3+
   0.5000000000000000    0.5000000000000000    0.0000000000000000 In3+
   0.0000000000000000    0.5000000000000000    0.5000000000000000 In3+
   0.0000000000000000    0.0000000000000000    0.5000000000000000 In3+
   0.5000000000000000    0.2500000000000000    0.6241589999999990 Cu+
   0.0000000000000000    0.2500000000000000    0.8758410000000011 Cu+
   0.0000000000000000    0.7500000000000000    0.1241589999999990 Cu+
   0.5000000000000000    0.7500000000000000    0.3758410000000010 Cu+
   0.0000000000000000    0.9913769999999991    0.7549040000000000 S2-
   0.0000000000000000    0.5086229999999990    0.7549040000000000 S2-
   0.2472339999999990    0.7500000000000000    0.5069989999999991 S2-
   0.7527659999999990    0.7500000000000000    0.5069989999999991 S2-
   0.5000000000000000    0.5086229999999990    0.7450959999999991 S2-
   0.5000000000000000    0.9913769999999991    0.7450959999999991 S2-
   0.2527660000000010    0.7500000000000000    0.9930009999999990 S2-
   0.7472339999999991    0.7500000000000000    0.9930009999999990 S2-
   0.5000000000000000    0.4913769999999991    0.2549039999999990 S2-
   0.5000000000000000    0.0086230000000000    0.2549039999999990 S2-
   0.7472339999999991    0.2500000000000000    0.0069989999999990 S2-
   0.2527660000000000    0.2500000000000000    0.0069989999999990 S2-
   0.0000000000000000    0.0086230000000000    0.2450959999999990 S2-
   0.0000000000000000    0.4913769999999991    0.2450959999999990 S2-
   0.7527659999999990    0.2500000000000000    0.4930009999999990 S2-
   0.2472339999999990    0.2500000000000000    0.4930009999999990 S2-
